Constructor : 
	simulation seed: 9
	output path: ./out/Small
	input data folder ./in/MILPexp
	output data folder ./out/Small/S5D2U2/9
	loading data from ./in/MILPexp
	initializing MILP Solver
Set parameter Username
Set parameter TimeLimit to value 86400
Set parameter MemLimit to value 64
Set parameter Method to value 0
Academic license - for non-commercial use only - expires 2023-04-21
	 Setting up MILP
6, 6
	 Saving MILP in ./out/Small/S5D2U2/9/MILP-primal/model.lp
Warning: linear constraint 15030 and linear constraint 45560 have the same name "socInit_1"
Gurobi Optimizer version 9.5.1 build v9.5.1rc2 (linux64)
Thread count: 24 physical cores, 48 logical processors, using up to 24 threads
Optimize a model with 46306 rows, 377 columns and 277830 nonzeros
Model fingerprint: 0x2efb8c15
Variable types: 29 continuous, 348 integer (348 binary)
Coefficient statistics:
  Matrix range     [1e+00, 2e+05]
  Objective range  [1e+00, 1e+00]
  Bounds range     [1e+00, 1e+00]
  RHS range        [1e+00, 1e+06]
Presolve removed 9832 rows and 88 columns
Presolve time: 0.69s
Presolved: 36474 rows, 289 columns, 221142 nonzeros
Variable types: 23 continuous, 266 integer (266 binary)

Root relaxation: objective 1.000000e+01, 322 iterations, 0.21 seconds (0.21 work units)

    Nodes    |    Current Node    |     Objective Bounds      |     Work
 Expl Unexpl |  Obj  Depth IntInf | Incumbent    BestBd   Gap | It/Node Time

     0     0   10.00000    0   73          -   10.00000      -     -    1s
     0     0   19.80423    0   65          -   19.80423      -     -    2s
     0     0   20.90766    0  118          -   20.90766      -     -    3s
     0     0   21.32095    0  115          -   21.32095      -     -    3s
     0     0   21.35853    0  125          -   21.35853      -     -    3s
     0     0   21.41918    0  123          -   21.41918      -     -    3s
     0     0   21.41918    0  127          -   21.41918      -     -    4s
     0     0   23.35545    0  107          -   23.35545      -     -    4s
     0     0   23.35545    0  107          -   23.35545      -     -    4s
     0     0   24.00000    0   92          -   24.00000      -     -    5s
     0     0   24.00000    0   93          -   24.00000      -     -    5s
     0     0   24.96284    0   90          -   24.96284      -     -    7s
     0     2   24.96284    0   90          -   24.96284      -     -    9s
     1     4   24.96284    1   83          -   24.96284      -  55.0   10s
   226   216  114.55168   11   53          -   28.23529      -  86.9   15s
   821   454 1091.58112   30   43          -   28.23529      -  52.2   20s
* 1265   607              17    2123.1622320   32.00000  98.5%  42.3   22s
H 1363   645                    2123.1622317   32.00000  98.5%  41.0   23s
* 1498   677              25    2083.1622320   32.00000  98.5%  39.1   24s
H 1616   707                    1531.4285714   32.00000  97.9%  37.8   25s
H 1898   725                    1531.4285138   35.00000  97.7%  35.7   27s
  2108   793 1471.42857   24   27 1531.42851   35.00000  97.7%  34.7   37s
  2374   830   40.03410   16   60 1531.42851   40.00000  97.4%  33.1   42s
  2885   978   40.00000   17   41 1531.42851   40.00000  97.4%  30.3   45s
  3970  1165 infeasible   32      1531.42851   40.00000  97.4%  27.8   50s
  5015  1288   80.00000   21   27 1531.42851   40.00000  97.4%  26.5   55s
  5813  1291   53.33333   25   45 1531.42851   40.00000  97.4%  26.1   60s
  6584  1238 1471.42857   26   22 1531.42851   40.00000  97.4%  26.3   66s
* 6674  1238              28    1511.4285714   48.50000  96.8%  26.5   66s
  7117  1187 infeasible   12      1511.42857   52.63158  96.5%  26.5   70s
  7434  1176 infeasible   18      1511.42857   60.00000  96.0%  26.6   75s
H 7466  1176                    1511.4285713   60.00000  96.0%  26.7   75s
  7847  1165  775.71429   30   10 1511.42857   60.00000  96.0%  26.8   80s
  8445  1134 infeasible   12      1511.42857   80.00000  94.7%  27.2   85s
  8747  1114 infeasible   18      1511.42857   80.00000  94.7%  27.5   91s
  9500  1062 1042.88399   14   57 1511.42857  755.71429  50.0%  27.3   97s
 10047  1073 infeasible   25      1511.42857  755.71429  50.0%  27.0  100s
 11305   974 1051.58112    7   52 1511.42857  755.71429  50.0%  26.3  107s
 11735   918 infeasible   10      1511.42857 1051.58112  30.4%  26.5  111s
 12808   801 1091.58112   18   37 1511.42857 1051.58112  30.4%  26.5  118s
 13255   726 1098.24778   16   33 1511.42857 1061.58112  29.8%  26.7  125s
 13937   677 1091.58112   10   48 1511.42857 1091.58112  27.8%  26.5  132s
 14601   557 infeasible   13      1511.42857 1091.58112  27.8%  26.4  136s
 15636   395 1474.75239   23    8 1511.42857 1091.58112  27.8%  25.7  141s
 16924   233 1490.00000   30    2 1511.42857 1461.35135  3.31%  24.7  146s
 18941     0 infeasible   26      1511.42857 1470.00000  2.74%  23.5  151s

Cutting planes:
  Gomory: 1
  Cover: 223
  Implied bound: 62
  Clique: 17
  MIR: 12
  GUB cover: 23
  Inf proof: 106
  Zero half: 11
  RLT: 55
  BQP: 1

Explored 19266 nodes (449968 simplex iterations) in 151.63 seconds (113.70 work units)
Thread count was 24 (of 48 available processors)

Solution count 6: 1511.43 1531.43 1531.43 ... 2123.16

Optimal solution found (tolerance 1.00e-04)
Best objective 1.511428571277e+03, best bound 1.511428571277e+03, gap 0.0000%
Gurobi status: 2
------------------------------
1:
	'id': 140538717215568, 'type':load, 'x': 1, 'y': 1, 'd': 1, 'p': 0, 'tau': 19.999999999999318, 'pred': None, 'succ':140538717215520
	'id': 140538717215520, 'type':move, 'x': 1, 'y': 5, 'd': 1, 'p': 1, 'tau': 735.7142857143181, 'pred': 140538717215568, 'succ':140538717215472
	'id': 140538717215472, 'type':unload, 'x': 5, 'y': 5, 'd': 1, 'p': 2, 'tau': 755.7142857143181, 'pred': 140538717215520, 'succ':140538708430752
	'id': 140538717215424, 'type':load, 'x': 5, 'y': 5, 'd': 2, 'p': 3, 'tau': 775.7142857143181, 'pred': None, 'succ':140538717215952
	'id': 140538717215952, 'type':move, 'x': 5, 'y': 4, 'd': 2, 'p': 4, 'tau': 1491.4285712773935, 'pred': 140538717215424, 'succ':140538717215904
	'id': 140538717215904, 'type':unload, 'x': 4, 'y': 4, 'd': 2, 'p': 5, 'tau': 1511.4285712773935, 'pred': 140538717215952, 'succ':140538717215616

2:
	'id': 140538717215616, 'type':load, 'x': 2, 'y': 2, 'd': 2, 'p': 0, 'tau': 19.999999999999318, 'pred': 140538717215904, 'succ':140538708996000
	'id': 140538708996000, 'type':move, 'x': 2, 'y': 5, 'd': 2, 'p': 1, 'tau': 735.7142857143181, 'pred': 140538717215616, 'succ':140538708766624
	'id': 140538708766624, 'type':unload, 'x': 5, 'y': 5, 'd': 2, 'p': 2, 'tau': 755.7142857143181, 'pred': 140538708996000, 'succ':None
	'id': 140538708430752, 'type':load, 'x': 5, 'y': 5, 'd': 1, 'p': 3, 'tau': 775.7142857143181, 'pred': 140538717215472, 'succ':140538708430800
	'id': 140538708430800, 'type':move, 'x': 5, 'y': 3, 'd': 1, 'p': 4, 'tau': 1491.4285712773935, 'pred': 140538708430752, 'succ':140538708422720
	'id': 140538708422720, 'type':unload, 'x': 3, 'y': 3, 'd': 1, 'p': 5, 'tau': 1511.4285712773935, 'pred': 140538708430800, 'succ':None
------------------------------

	Saving solution in ./out/Small/S5D2U2/9/MILP-primal/schedule.json
saving schedule
saving metrics
